Minimize
 obj: + 221.8 x_user1_load0_hour0 + 195.1 x_user1_load0_hour1 
 + 168.2 x_user1_load0_hour2 + 157.2 x_user1_load0_hour3 
 + 141.8 x_user1_load0_hour4 + 128.1 x_user1_load0_hour5 
 + 114.2 x_user1_load0_hour6 + 114.2 x_user1_load0_hour7 
 + 119.8 x_user1_load0_hour8 + 123.1 x_user1_load0_hour9 
 + 134.2 x_user1_load0_hour10 + 146.2 x_user1_load0_hour11 
 + 162.8 x_user1_load0_hour12 + 181.1 x_user1_load0_hour13 
 + 225.2 x_user1_load1_hour0 + 189.4 x_user1_load1_hour1 
 + 169.6 x_user1_load1_hour2 + 155.6 x_user1_load1_hour3 
 + 145.2 x_user1_load1_hour4 + 124.4 x_user1_load1_hour5 
 + 111.6 x_user1_load1_hour6 + 116.6 x_user1_load1_hour7 
 + 117.2 x_user1_load1_hour8 + 123.4 x_user1_load1_hour9 
 + 133.6 x_user1_load1_hour10 + 145.6 x_user1_load1_hour11 
 + 161.2 x_user1_load1_hour12 + 184.4 x_user1_load1_hour13 
 + 197.6 x_user1_load1_hour14 + 254.7 x_user1_load2_hour0 
 + 230 x_user1_load2_hour1 + 194.6 x_user1_load2_hour2 
 + 183.8 x_user1_load2_hour3 + 162.2 x_user1_load2_hour4 
 + 151 x_user1_load2_hour5 + 135.1 x_user1_load2_hour6 
 + 131.8 x_user1_load2_hour7 + 141.7 x_user1_load2_hour8 
 + 144 x_user1_load2_hour9 + 157.6 x_user1_load2_hour10 
 + 171.8 x_user1_load2_hour11 + 192.2 x_user1_load2_hour12 
 + 210 x_user1_load2_hour13 + 145.5 x_user1_load3_hour0 
 + 129.6 x_user1_load3_hour1 + 111.2 x_user1_load3_hour2 
 + 104.4 x_user1_load3_hour3 + 93 x_user1_load3_hour4 
 + 85.1 x_user1_load3_hour5 + 76.7 x_user1_load3_hour6 
 + 75.9 x_user1_load3_hour7 + 80.5 x_user1_load3_hour8 
 + 82.6 x_user1_load3_hour9 + 90.2 x_user1_load3_hour10 
 + 98.4 x_user1_load3_hour11 + 110 x_user1_load3_hour12 
 + 121.1 x_user1_load3_hour13 + 156.3 x_user1_load4_hour0 
 + 138.1 x_user1_load4_hour1 + 115.4 x_user1_load4_hour2 
 + 108.4 x_user1_load4_hour3 + 98.8 x_user1_load4_hour4 
 + 90.6 x_user1_load4_hour5 + 75.9 x_user1_load4_hour6 
 + 74.9 x_user1_load4_hour7 + 79.3 x_user1_load4_hour8 
 + 79.1 x_user1_load4_hour9 + 86.4 x_user1_load4_hour10 
 + 93.4 x_user1_load4_hour11 + 102.8 x_user1_load4_hour12 
 + 115.6 x_user1_load4_hour13 + 129.9 x_user1_load4_hour14 
 + 353.3 x_user1_load5_hour0 + 322.4 x_user1_load5_hour1 
 + 270.2 x_user1_load5_hour2 + 252.4 x_user1_load5_hour3 
 + 241.3 x_user1_load5_hour4 + 229.9 x_user1_load5_hour5 
 + 219.2 x_user1_load5_hour6 + 224.9 x_user1_load5_hour7 
 + 243.3 x_user1_load5_hour8 + 257.4 x_user1_load5_hour9 
 + 289.2 x_user1_load5_hour10 + 309.4 x_user1_load5_hour11 
 + 156.3 x_user1_load6_hour0 + 138.1 x_user1_load6_hour1 
 + 115.4 x_user1_load6_hour2 + 108.4 x_user1_load6_hour3 
 + 98.8 x_user1_load6_hour4 + 90.6 x_user1_load6_hour5 
 + 75.9 x_user1_load6_hour6 + 74.9 x_user1_load6_hour7 
 + 79.3 x_user1_load6_hour8 + 79.1 x_user1_load6_hour9 
 + 86.4 x_user1_load6_hour10 + 93.4 x_user1_load6_hour11 
 + 102.8 x_user1_load6_hour12 + 115.6 x_user1_load6_hour13 
 + 129.9 x_user1_load6_hour14 + 148.9 x_user1_load7_hour0 
 + 123.9 x_user1_load7_hour1 + 112.6 x_user1_load7_hour2 
 + 102.8 x_user1_load7_hour3 + 96.4 x_user1_load7_hour4 
 + 81.4 x_user1_load7_hour5 + 74.1 x_user1_load7_hour6 
 + 78.3 x_user1_load7_hour7 + 77.9 x_user1_load7_hour8 
 + 82.9 x_user1_load7_hour9 + 89.6 x_user1_load7_hour10 
 + 97.8 x_user1_load7_hour11 + 108.4 x_user1_load7_hour12 
 + 124.4 x_user1_load7_hour13 + 132.1 x_user1_load7_hour14 

Subject To 
 load_load0_scheduled: + 1 x_user1_load0_hour0 + 1 x_user1_load0_hour1 
 + 1 x_user1_load0_hour2 + 1 x_user1_load0_hour3 + 1 x_user1_load0_hour4 
 + 1 x_user1_load0_hour5 + 1 x_user1_load0_hour6 + 1 x_user1_load0_hour7 
 + 1 x_user1_load0_hour8 + 1 x_user1_load0_hour9 + 1 x_user1_load0_hour10 
 + 1 x_user1_load0_hour11 + 1 x_user1_load0_hour12 + 1 x_user1_load0_hour13 
  = 1.0
 load_load1_scheduled: + 1 x_user1_load1_hour0 + 1 x_user1_load1_hour1 
 + 1 x_user1_load1_hour2 + 1 x_user1_load1_hour3 + 1 x_user1_load1_hour4 
 + 1 x_user1_load1_hour5 + 1 x_user1_load1_hour6 + 1 x_user1_load1_hour7 
 + 1 x_user1_load1_hour8 + 1 x_user1_load1_hour9 + 1 x_user1_load1_hour10 
 + 1 x_user1_load1_hour11 + 1 x_user1_load1_hour12 + 1 x_user1_load1_hour13 
 + 1 x_user1_load1_hour14  = 1.0
 load_load2_scheduled: + 1 x_user1_load2_hour0 + 1 x_user1_load2_hour1 
 + 1 x_user1_load2_hour2 + 1 x_user1_load2_hour3 + 1 x_user1_load2_hour4 
 + 1 x_user1_load2_hour5 + 1 x_user1_load2_hour6 + 1 x_user1_load2_hour7 
 + 1 x_user1_load2_hour8 + 1 x_user1_load2_hour9 + 1 x_user1_load2_hour10 
 + 1 x_user1_load2_hour11 + 1 x_user1_load2_hour12 + 1 x_user1_load2_hour13 
  = 1.0
 load_load3_scheduled: + 1 x_user1_load3_hour0 + 1 x_user1_load3_hour1 
 + 1 x_user1_load3_hour2 + 1 x_user1_load3_hour3 + 1 x_user1_load3_hour4 
 + 1 x_user1_load3_hour5 + 1 x_user1_load3_hour6 + 1 x_user1_load3_hour7 
 + 1 x_user1_load3_hour8 + 1 x_user1_load3_hour9 + 1 x_user1_load3_hour10 
 + 1 x_user1_load3_hour11 + 1 x_user1_load3_hour12 + 1 x_user1_load3_hour13 
  = 1.0
 load_load4_scheduled: + 1 x_user1_load4_hour0 + 1 x_user1_load4_hour1 
 + 1 x_user1_load4_hour2 + 1 x_user1_load4_hour3 + 1 x_user1_load4_hour4 
 + 1 x_user1_load4_hour5 + 1 x_user1_load4_hour6 + 1 x_user1_load4_hour7 
 + 1 x_user1_load4_hour8 + 1 x_user1_load4_hour9 + 1 x_user1_load4_hour10 
 + 1 x_user1_load4_hour11 + 1 x_user1_load4_hour12 + 1 x_user1_load4_hour13 
 + 1 x_user1_load4_hour14  = 1.0
 load_load5_scheduled: + 1 x_user1_load5_hour0 + 1 x_user1_load5_hour1 
 + 1 x_user1_load5_hour2 + 1 x_user1_load5_hour3 + 1 x_user1_load5_hour4 
 + 1 x_user1_load5_hour5 + 1 x_user1_load5_hour6 + 1 x_user1_load5_hour7 
 + 1 x_user1_load5_hour8 + 1 x_user1_load5_hour9 + 1 x_user1_load5_hour10 
 + 1 x_user1_load5_hour11  = 1.0
 load_load6_scheduled: + 1 x_user1_load6_hour0 + 1 x_user1_load6_hour1 
 + 1 x_user1_load6_hour2 + 1 x_user1_load6_hour3 + 1 x_user1_load6_hour4 
 + 1 x_user1_load6_hour5 + 1 x_user1_load6_hour6 + 1 x_user1_load6_hour7 
 + 1 x_user1_load6_hour8 + 1 x_user1_load6_hour9 + 1 x_user1_load6_hour10 
 + 1 x_user1_load6_hour11 + 1 x_user1_load6_hour12 + 1 x_user1_load6_hour13 
 + 1 x_user1_load6_hour14  = 1.0
 load_load7_scheduled: + 1 x_user1_load7_hour0 + 1 x_user1_load7_hour1 
 + 1 x_user1_load7_hour2 + 1 x_user1_load7_hour3 + 1 x_user1_load7_hour4 
 + 1 x_user1_load7_hour5 + 1 x_user1_load7_hour6 + 1 x_user1_load7_hour7 
 + 1 x_user1_load7_hour8 + 1 x_user1_load7_hour9 + 1 x_user1_load7_hour10 
 + 1 x_user1_load7_hour11 + 1 x_user1_load7_hour12 + 1 x_user1_load7_hour13 
 + 1 x_user1_load7_hour14  = 1.0
 MaxLoadConnection_user1_0: + 3 x_user1_load0_hour0 + 2 x_user1_load1_hour0 
 + 4 x_user1_load2_hour0 + 2 x_user1_load3_hour0 + 3 x_user1_load4_hour0 
 + 4 x_user1_load5_hour0 + 3 x_user1_load6_hour0 + 1 x_user1_load7_hour0 
  <= 4.0
 MaxLoadConnection_user1_1: + 3 x_user1_load0_hour1 + 2 x_user1_load0_hour0 
 + 2 x_user1_load1_hour1 + 4 x_user1_load1_hour0 + 4 x_user1_load2_hour1 
 + 1 x_user1_load2_hour0 + 2 x_user1_load3_hour1 + 1 x_user1_load3_hour0 
 + 3 x_user1_load4_hour1 + 1 x_user1_load4_hour0 + 4 x_user1_load5_hour1 
 + 1 x_user1_load5_hour0 + 3 x_user1_load6_hour1 + 1 x_user1_load6_hour0 
 + 1 x_user1_load7_hour1 + 3 x_user1_load7_hour0  <= 4.0
 MaxLoadConnection_user1_2: + 3 x_user1_load0_hour2 + 2 x_user1_load0_hour1 
 + 1 x_user1_load0_hour0 + 2 x_user1_load1_hour2 + 4 x_user1_load1_hour1 
 + 4 x_user1_load2_hour2 + 1 x_user1_load2_hour1 + 2 x_user1_load2_hour0 
 + 2 x_user1_load3_hour2 + 1 x_user1_load3_hour1 + 1 x_user1_load3_hour0 
 + 3 x_user1_load4_hour2 + 1 x_user1_load4_hour1 + 4 x_user1_load5_hour2 
 + 1 x_user1_load5_hour1 + 1 x_user1_load5_hour0 + 3 x_user1_load6_hour2 
 + 1 x_user1_load6_hour1 + 1 x_user1_load7_hour2 + 3 x_user1_load7_hour1 
  <= 4.0
 MaxLoadConnection_user1_3: + 3 x_user1_load0_hour3 + 2 x_user1_load0_hour2 
 + 1 x_user1_load0_hour1 + 2 x_user1_load1_hour3 + 4 x_user1_load1_hour2 
 + 4 x_user1_load2_hour3 + 1 x_user1_load2_hour2 + 2 x_user1_load2_hour1 
 + 2 x_user1_load3_hour3 + 1 x_user1_load3_hour2 + 1 x_user1_load3_hour1 
 + 3 x_user1_load4_hour3 + 1 x_user1_load4_hour2 + 4 x_user1_load5_hour3 
 + 1 x_user1_load5_hour2 + 1 x_user1_load5_hour1 + 1 x_user1_load5_hour0 
 + 3 x_user1_load6_hour3 + 1 x_user1_load6_hour2 + 1 x_user1_load7_hour3 
 + 3 x_user1_load7_hour2  <= 4.0
 MaxLoadConnection_user1_4: + 3 x_user1_load0_hour4 + 2 x_user1_load0_hour3 
 + 1 x_user1_load0_hour2 + 2 x_user1_load1_hour4 + 4 x_user1_load1_hour3 
 + 4 x_user1_load2_hour4 + 1 x_user1_load2_hour3 + 2 x_user1_load2_hour2 
 + 2 x_user1_load3_hour4 + 1 x_user1_load3_hour3 + 1 x_user1_load3_hour2 
 + 3 x_user1_load4_hour4 + 1 x_user1_load4_hour3 + 4 x_user1_load5_hour4 
 + 1 x_user1_load5_hour3 + 1 x_user1_load5_hour2 + 1 x_user1_load5_hour1 
 + 4 x_user1_load5_hour0 + 3 x_user1_load6_hour4 + 1 x_user1_load6_hour3 
 + 1 x_user1_load7_hour4 + 3 x_user1_load7_hour3  <= 4.0
 MaxLoadConnection_user1_5: + 3 x_user1_load0_hour5 + 2 x_user1_load0_hour4 
 + 1 x_user1_load0_hour3 + 2 x_user1_load1_hour5 + 4 x_user1_load1_hour4 
 + 4 x_user1_load2_hour5 + 1 x_user1_load2_hour4 + 2 x_user1_load2_hour3 
 + 2 x_user1_load3_hour5 + 1 x_user1_load3_hour4 + 1 x_user1_load3_hour3 
 + 3 x_user1_load4_hour5 + 1 x_user1_load4_hour4 + 4 x_user1_load5_hour5 
 + 1 x_user1_load5_hour4 + 1 x_user1_load5_hour3 + 1 x_user1_load5_hour2 
 + 4 x_user1_load5_hour1 + 3 x_user1_load6_hour5 + 1 x_user1_load6_hour4 
 + 1 x_user1_load7_hour5 + 3 x_user1_load7_hour4  <= 4.0
 MaxLoadConnection_user1_6: + 3 x_user1_load0_hour6 + 2 x_user1_load0_hour5 
 + 1 x_user1_load0_hour4 + 2 x_user1_load1_hour6 + 4 x_user1_load1_hour5 
 + 4 x_user1_load2_hour6 + 1 x_user1_load2_hour5 + 2 x_user1_load2_hour4 
 + 2 x_user1_load3_hour6 + 1 x_user1_load3_hour5 + 1 x_user1_load3_hour4 
 + 3 x_user1_load4_hour6 + 1 x_user1_load4_hour5 + 4 x_user1_load5_hour6 
 + 1 x_user1_load5_hour5 + 1 x_user1_load5_hour4 + 1 x_user1_load5_hour3 
 + 4 x_user1_load5_hour2 + 3 x_user1_load6_hour6 + 1 x_user1_load6_hour5 
 + 1 x_user1_load7_hour6 + 3 x_user1_load7_hour5  <= 4.0
 MaxLoadConnection_user1_7: + 3 x_user1_load0_hour7 + 2 x_user1_load0_hour6 
 + 1 x_user1_load0_hour5 + 2 x_user1_load1_hour7 + 4 x_user1_load1_hour6 
 + 4 x_user1_load2_hour7 + 1 x_user1_load2_hour6 + 2 x_user1_load2_hour5 
 + 2 x_user1_load3_hour7 + 1 x_user1_load3_hour6 + 1 x_user1_load3_hour5 
 + 3 x_user1_load4_hour7 + 1 x_user1_load4_hour6 + 4 x_user1_load5_hour7 
 + 1 x_user1_load5_hour6 + 1 x_user1_load5_hour5 + 1 x_user1_load5_hour4 
 + 4 x_user1_load5_hour3 + 3 x_user1_load6_hour7 + 1 x_user1_load6_hour6 
 + 1 x_user1_load7_hour7 + 3 x_user1_load7_hour6  <= 4.0
 MaxLoadConnection_user1_8: + 3 x_user1_load0_hour8 + 2 x_user1_load0_hour7 
 + 1 x_user1_load0_hour6 + 2 x_user1_load1_hour8 + 4 x_user1_load1_hour7 
 + 4 x_user1_load2_hour8 + 1 x_user1_load2_hour7 + 2 x_user1_load2_hour6 
 + 2 x_user1_load3_hour8 + 1 x_user1_load3_hour7 + 1 x_user1_load3_hour6 
 + 3 x_user1_load4_hour8 + 1 x_user1_load4_hour7 + 4 x_user1_load5_hour8 
 + 1 x_user1_load5_hour7 + 1 x_user1_load5_hour6 + 1 x_user1_load5_hour5 
 + 4 x_user1_load5_hour4 + 3 x_user1_load6_hour8 + 1 x_user1_load6_hour7 
 + 1 x_user1_load7_hour8 + 3 x_user1_load7_hour7  <= 4.0
 MaxLoadConnection_user1_9: + 3 x_user1_load0_hour9 + 2 x_user1_load0_hour8 
 + 1 x_user1_load0_hour7 + 2 x_user1_load1_hour9 + 4 x_user1_load1_hour8 
 + 4 x_user1_load2_hour9 + 1 x_user1_load2_hour8 + 2 x_user1_load2_hour7 
 + 2 x_user1_load3_hour9 + 1 x_user1_load3_hour8 + 1 x_user1_load3_hour7 
 + 3 x_user1_load4_hour9 + 1 x_user1_load4_hour8 + 4 x_user1_load5_hour9 
 + 1 x_user1_load5_hour8 + 1 x_user1_load5_hour7 + 1 x_user1_load5_hour6 
 + 4 x_user1_load5_hour5 + 3 x_user1_load6_hour9 + 1 x_user1_load6_hour8 
 + 1 x_user1_load7_hour9 + 3 x_user1_load7_hour8  <= 4.0
 MaxLoadConnection_user1_10: + 3 x_user1_load0_hour10 + 2 x_user1_load0_hour9 
 + 1 x_user1_load0_hour8 + 2 x_user1_load1_hour10 + 4 x_user1_load1_hour9 
 + 4 x_user1_load2_hour10 + 1 x_user1_load2_hour9 + 2 x_user1_load2_hour8 
 + 2 x_user1_load3_hour10 + 1 x_user1_load3_hour9 + 1 x_user1_load3_hour8 
 + 3 x_user1_load4_hour10 + 1 x_user1_load4_hour9 + 4 x_user1_load5_hour10 
 + 1 x_user1_load5_hour9 + 1 x_user1_load5_hour8 + 1 x_user1_load5_hour7 
 + 4 x_user1_load5_hour6 + 3 x_user1_load6_hour10 + 1 x_user1_load6_hour9 
 + 1 x_user1_load7_hour10 + 3 x_user1_load7_hour9  <= 4.0
 MaxLoadConnection_user1_11: + 3 x_user1_load0_hour11 + 2 x_user1_load0_hour10 
 + 1 x_user1_load0_hour9 + 2 x_user1_load1_hour11 + 4 x_user1_load1_hour10 
 + 4 x_user1_load2_hour11 + 1 x_user1_load2_hour10 + 2 x_user1_load2_hour9 
 + 2 x_user1_load3_hour11 + 1 x_user1_load3_hour10 + 1 x_user1_load3_hour9 
 + 3 x_user1_load4_hour11 + 1 x_user1_load4_hour10 + 4 x_user1_load5_hour11 
 + 1 x_user1_load5_hour10 + 1 x_user1_load5_hour9 + 1 x_user1_load5_hour8 
 + 4 x_user1_load5_hour7 + 3 x_user1_load6_hour11 + 1 x_user1_load6_hour10 
 + 1 x_user1_load7_hour11 + 3 x_user1_load7_hour10  <= 4.0
 MaxLoadConnection_user1_12: + 3 x_user1_load0_hour12 + 2 x_user1_load0_hour11 
 + 1 x_user1_load0_hour10 + 2 x_user1_load1_hour12 + 4 x_user1_load1_hour11 
 + 4 x_user1_load2_hour12 + 1 x_user1_load2_hour11 + 2 x_user1_load2_hour10 
 + 2 x_user1_load3_hour12 + 1 x_user1_load3_hour11 + 1 x_user1_load3_hour10 
 + 3 x_user1_load4_hour12 + 1 x_user1_load4_hour11 + 1 x_user1_load5_hour11 
 + 1 x_user1_load5_hour10 + 1 x_user1_load5_hour9 + 4 x_user1_load5_hour8 
 + 3 x_user1_load6_hour12 + 1 x_user1_load6_hour11 + 1 x_user1_load7_hour12 
 + 3 x_user1_load7_hour11  <= 4.0
 MaxLoadConnection_user1_13: + 3 x_user1_load0_hour13 + 2 x_user1_load0_hour12 
 + 1 x_user1_load0_hour11 + 2 x_user1_load1_hour13 + 4 x_user1_load1_hour12 
 + 4 x_user1_load2_hour13 + 1 x_user1_load2_hour12 + 2 x_user1_load2_hour11 
 + 2 x_user1_load3_hour13 + 1 x_user1_load3_hour12 + 1 x_user1_load3_hour11 
 + 3 x_user1_load4_hour13 + 1 x_user1_load4_hour12 + 1 x_user1_load5_hour11 
 + 1 x_user1_load5_hour10 + 4 x_user1_load5_hour9 + 3 x_user1_load6_hour13 
 + 1 x_user1_load6_hour12 + 1 x_user1_load7_hour13 + 3 x_user1_load7_hour12 
  <= 4.0
 MaxLoadConnection_user1_14: + 2 x_user1_load0_hour13 + 1 x_user1_load0_hour12 
 + 2 x_user1_load1_hour14 + 4 x_user1_load1_hour13 + 1 x_user1_load2_hour13 
 + 2 x_user1_load2_hour12 + 1 x_user1_load3_hour13 + 1 x_user1_load3_hour12 
 + 3 x_user1_load4_hour14 + 1 x_user1_load4_hour13 + 1 x_user1_load5_hour11 
 + 4 x_user1_load5_hour10 + 3 x_user1_load6_hour14 + 1 x_user1_load6_hour13 
 + 1 x_user1_load7_hour14 + 3 x_user1_load7_hour13  <= 4.0
 MaxLoadConnection_user1_15: + 1 x_user1_load0_hour13 + 4 x_user1_load1_hour14 
 + 2 x_user1_load2_hour13 + 1 x_user1_load3_hour13 + 1 x_user1_load4_hour14 
 + 4 x_user1_load5_hour11 + 1 x_user1_load6_hour14 + 3 x_user1_load7_hour14 
  <= 4.0

Bounds

Binary
 x_user1_load0_hour0 x_user1_load0_hour1 x_user1_load0_hour2
  x_user1_load0_hour3 x_user1_load0_hour4 x_user1_load0_hour5
  x_user1_load0_hour6 x_user1_load0_hour7 x_user1_load0_hour8
  x_user1_load0_hour9 x_user1_load0_hour10 x_user1_load0_hour11
  x_user1_load0_hour12 x_user1_load0_hour13 x_user1_load1_hour0
  x_user1_load1_hour1 x_user1_load1_hour2 x_user1_load1_hour3
  x_user1_load1_hour4 x_user1_load1_hour5 x_user1_load1_hour6
  x_user1_load1_hour7 x_user1_load1_hour8 x_user1_load1_hour9
  x_user1_load1_hour10 x_user1_load1_hour11 x_user1_load1_hour12
  x_user1_load1_hour13 x_user1_load1_hour14 x_user1_load2_hour0
  x_user1_load2_hour1 x_user1_load2_hour2 x_user1_load2_hour3
  x_user1_load2_hour4 x_user1_load2_hour5 x_user1_load2_hour6
  x_user1_load2_hour7 x_user1_load2_hour8 x_user1_load2_hour9
  x_user1_load2_hour10 x_user1_load2_hour11 x_user1_load2_hour12
  x_user1_load2_hour13 x_user1_load3_hour0 x_user1_load3_hour1
  x_user1_load3_hour2 x_user1_load3_hour3 x_user1_load3_hour4
  x_user1_load3_hour5 x_user1_load3_hour6 x_user1_load3_hour7
  x_user1_load3_hour8 x_user1_load3_hour9 x_user1_load3_hour10
  x_user1_load3_hour11 x_user1_load3_hour12 x_user1_load3_hour13
  x_user1_load4_hour0 x_user1_load4_hour1 x_user1_load4_hour2
  x_user1_load4_hour3 x_user1_load4_hour4 x_user1_load4_hour5
  x_user1_load4_hour6 x_user1_load4_hour7 x_user1_load4_hour8
  x_user1_load4_hour9 x_user1_load4_hour10 x_user1_load4_hour11
  x_user1_load4_hour12 x_user1_load4_hour13 x_user1_load4_hour14
  x_user1_load5_hour0 x_user1_load5_hour1 x_user1_load5_hour2
  x_user1_load5_hour3 x_user1_load5_hour4 x_user1_load5_hour5
  x_user1_load5_hour6 x_user1_load5_hour7 x_user1_load5_hour8
  x_user1_load5_hour9 x_user1_load5_hour10 x_user1_load5_hour11
  x_user1_load6_hour0 x_user1_load6_hour1 x_user1_load6_hour2
  x_user1_load6_hour3 x_user1_load6_hour4 x_user1_load6_hour5
  x_user1_load6_hour6 x_user1_load6_hour7 x_user1_load6_hour8
  x_user1_load6_hour9 x_user1_load6_hour10 x_user1_load6_hour11
  x_user1_load6_hour12 x_user1_load6_hour13 x_user1_load6_hour14
  x_user1_load7_hour0 x_user1_load7_hour1 x_user1_load7_hour2
  x_user1_load7_hour3 x_user1_load7_hour4 x_user1_load7_hour5
  x_user1_load7_hour6 x_user1_load7_hour7 x_user1_load7_hour8
  x_user1_load7_hour9 x_user1_load7_hour10 x_user1_load7_hour11
  x_user1_load7_hour12 x_user1_load7_hour13 x_user1_load7_hour14
General

End